ITEM = 1..16;
capacity1 = 211;
capacity2 = 209;
capacity3 = 211;
profits = [877, 58, 749, 106, 612, 133, 805, 155, 62, 416, 267, 150, 313, 383, 378, 55];
weights = [68, 87, 59, 61, 21, 99, 39, 45, 66, 68, 77, 87, 61, 11, 50, 23];
